<instance format="XCSP3" type="CSP">
  <variables>
    <var id="x0"> 1 2 6 7 14 </var>
    <var id="x1"> 1 2 13 14 </var>
    <var id="x2"> 2 4 6 7 13 </var>
    <var id="x3"> 2 4 7 13 </var>
    <var id="x4"> 6 13 14 </var>
    <var id="x5"> 2 7 13 </var>
    <var id="x6"> 1 6 7 </var>
    <var id="x7"> 2 4 6 7 11 </var>
    <var id="x8"> 0 2 4 9 </var>
    <var id="x9"> 0 4 6 11 </var>
    <var id="x10"> 0 2 4 6 </var>
    <var id="x11"> 2 4 9 11 </var>
    <var id="x12"> 0 4 6 7 </var>
    <var id="x13"> 6 7 9 11 </var>
    <var id="x14"> 6 7 14 </var>
    <var id="x15"> 0 5 6 14 </var>
    <var id="x16"> 0 7 12 </var>
    <var id="x17"> 0 6 14 </var>
    <var id="x18"> 9 </var>
    <var id="x19"> 5 6 9 12 14 </var>
    <var id="x20"> 0 5 12 </var>
    <var id="x21"> 1..3 6 7 </var>
    <var id="x22"> 2 4 7 </var>
    <var id="x23"> 1 3..7 </var>
    <var id="x24"> 1 4 6 7 </var>
    <var id="x25"> 2 3 5 7 </var>
    <var id="x26"> 1 3 6 7 </var>
    <var id="x27"> 1 3..5 </var>
    <var id="x28"> 4 7 11 13 </var>
    <var id="x29"> 4 7 11 13 </var>
    <var id="x30"> 0 4 9 12 </var>
    <var id="x31"> 0 3 4 11 </var>
    <var id="x32"> 0 4 7 12 13 </var>
    <var id="x33"> 0 3 4 </var>
    <var id="x34"> 4 7 11..13 </var>
    <var id="x35"> 0 3 4 12 </var>
    <var id="x36"> 6 11 13 </var>
    <var id="x37"> 0 5 6 11 </var>
    <var id="x38"> 0 1 6 </var>
    <var id="x39"> 9 11 13 </var>
    <var id="x40"> 5 6 9 13 </var>
    <var id="x41"> 1 6 11 13 </var>
    <var id="x42"> 0 5 13 </var>
    <var id="x43"> 4 6 7 11 </var>
    <var id="x44"> 11 </var>
    <var id="x45"> 0 4 5 12 </var>
    <var id="x46"> 0 4 6 </var>
    <var id="x47"> 4 6 7 11 12 </var>
    <var id="x48"> 0 5 7 12 </var>
    <var id="x49"> 6 7 11 12 </var>
    <var id="x50"> 1..3 7 14 </var>
    <var id="x51"> 2 7 13 </var>
    <var id="x52"> 3 14 </var>
    <var id="x53"> 2 7 8 13 </var>
    <var id="x54"> 2 3 8 13 </var>
    <var id="x55"> 2 3 7 13 </var>
    <var id="x56"> 1 3 8 </var>
    <var id="x57"> 0 3 6 </var>
    <var id="x58"> 13 </var>
    <var id="x59"> 4 6 13 </var>
    <var id="x60"> 0 4 10 12 </var>
    <var id="x61"> 0 3 4 6 10 </var>
    <var id="x62"> 3 4 13 </var>
    <var id="x63"> 0 3 4 6 </var>
    <var id="x64"> 2 11 14 </var>
    <var id="x65"> 2 8 11 14 </var>
    <var id="x66"> 2 5 11 </var>
    <var id="x67"> 2 3 8 11 </var>
    <var id="x68"> 5 12 14 </var>
    <var id="x69"> 3 11 12 </var>
    <var id="x70"> 3 5 8 12 </var>
    <var id="x71"> 2 4..6 13 </var>
    <var id="x72"> 2 4 8 12 13 </var>
    <var id="x73"> 2 4 6 </var>
    <var id="x74"> 2 4 8 13 </var>
    <var id="x75"> 4..6 </var>
    <var id="x76"> 5 6 12 13 </var>
    <var id="x77"> 4 5 8 12 </var>
    <var id="x78"> 1..3 14 </var>
    <var id="x79"> 2 10 12 </var>
    <var id="x80"> 2 12 </var>
    <var id="x81"> 1..3 10 14 </var>
    <var id="x82"> 1 3 </var>
    <var id="x83"> 1 3 11 12 </var>
    <var id="x84"> 1 3 12 </var>
    <var id="x85"> 0 1 </var>
    <var id="x86"> 1 9 13 </var>
    <var id="x87"> 4 5 13 </var>
    <var id="x88"> 0 4 5 9 10 </var>
    <var id="x89"> 0 4 5 </var>
    <var id="x90"> 5 9 10 13 </var>
    <var id="x91"> 1 4 13 </var>
    <var id="x92"> 0 2 3 7 14 </var>
    <var id="x93"> 2 4 7 11 14 </var>
    <var id="x94"> 2 11 14 </var>
    <var id="x95"> 0 3 4 11 14 </var>
    <var id="x96"> 0 3 4 7 </var>
    <var id="x97"> 4 7 11 </var>
    <var id="x98"> 0 2 3 7 </var>
    <var id="x99"> 1 2 8 13 </var>
    <var id="x100"> 2 4 </var>
    <var id="x101"> 1 3 4 6 </var>
    <var id="x102"> 6 13 </var>
    <var id="x103"> 1 4 6 13 </var>
    <var id="x104"> 2 3 13 </var>
    <var id="x105"> 1 3 6 </var>
  </variables>
  <constraints>
    <group>
      <allDifferent> %... </allDifferent>
      <args> x0 x1 x2 x3 x4 x5 x6 </args>
      <args> x7 x8 x9 x10 x11 x12 x13 </args>
      <args> x14 x15 x16 x17 x18 x19 x20 </args>
      <args> x21 x22 x23 x24 x25 x26 x27 </args>
      <args> x28 x29 x30 x31 x32 x33 x34 x35 </args>
      <args> x36 x37 x38 x39 x40 x41 x42 </args>
      <args> x43 x44 x45 x46 x47 x48 x49 </args>
      <args> x50 x51 x52 x53 x54 x55 x56 </args>
      <args> x57 x58 x59 x60 x61 x62 x63 </args>
      <args> x64 x65 x66 x67 x68 x69 x70 </args>
      <args> x71 x72 x73 x74 x75 x76 x77 </args>
      <args> x78 x79 x80 x81 x82 x83 x84 </args>
      <args> x85 x86 x87 x88 x89 x90 x91 </args>
      <args> x92 x93 x94 x95 x96 x97 x98 </args>
      <args> x99 x100 x101 x102 x103 x104 x105 </args>
      <args> x0 x21 x50 x57 x78 x85 x92 </args>
      <args> x7 x14 x28 x36 x43 x64 x93 </args>
      <args> x1 x44 x58 x65 x86 x94 x99 </args>
      <args> x2 x29 x51 x59 x66 x71 x87 </args>
      <args> x8 x30 x45 x60 x79 x88 x100 </args>
      <args> x9 x15 x31 x37 x52 x89 x95 </args>
      <args> x3 x16 x22 x32 x53 x72 x80 </args>
      <args> x10 x17 x33 x38 x46 x61 x73 x81 </args>
      <args> x11 x18 x39 x54 x62 x67 x74 </args>
      <args> x12 x23 x63 x75 x82 x96 x101 </args>
      <args> x4 x19 x40 x68 x76 x90 x102 </args>
      <args> x24 x34 x41 x47 x91 x97 x103 </args>
      <args> x5 x25 x42 x48 x55 x98 x104 </args>
      <args> x6 x13 x26 x49 x69 x83 x105 </args>
      <args> x20 x27 x35 x56 x70 x77 x84 </args>
    </group>
  </constraints>
</instance>

